results/sol/URT_01_deadline.sol
# Solution for model Model5
# Objective value = 28
y[0,0,1] 1
y[0,1,1] 1
y[1,0,0] 1
y[1,1,1] 1
x[0,0,0,0] 0
x[0,0,0,1] 1
x[0,0,1,0] 0
x[0,0,1,1] 1
x[0,1,0,0] 0
x[0,1,0,1] 0
x[0,1,1,0] 0
x[0,1,1,1] 1
x[1,0,0,0] 0
x[1,0,0,1] 0
x[1,0,1,0] 0
x[1,0,1,1] 0
x[1,1,0,0] 0
x[1,1,0,1] 0
x[1,1,1,0] 0
x[1,1,1,1] 0
s[0,0,1] 2.9999999999994508e+01
s[0,1,1] 1.9999999999998430e+01
s[1,0,0] 5.0000000000036238e+00
s[1,1,1] 3.9794506068335409e-12
Z_FO 28
C25 1
C26 1
